lp_solve/compute_ilp/benchmarks/fir.lp
Maximize

136 dSta_0 + 63 d0_11 + 38 d1_3.v0 + 38 d1_3.v1 + 45 d1_10.v0 + 15 d1_10.v1 + 38 d2_3.v00 + 38 d2_3.v01 + 38 d2_3.v10 + 38 d2_3.v11 + 45 d2_2.v00 + 15 d2_2.v01 + 15 d2_2.v10 + 15 d2_2.v11 + 3 d3_4.v0 + 3 d3_4.v1 + 2 d3_5.v0 + 2 d3_5.v1 + 3 d4_8.v0 + 3 d4_8.v1 + 1 d5_6.v0 + 1 d5_6.v1 + 1 d5_7.v0 + 1 d5_7.v1 + 1 d6_7.v0 + 1 d6_7.v1 + 3 d7_8.v0 + 3 d7_8.v1 + 31 d8_9.v0 + 31 d8_9.v1 + 5 d8_1.v0 + 5 d8_1.v1 + 45 d10_2.v0 + 15 d10_2.v1 + 38 d10_3.v0 + 38 d10_3.v1 + 65 d11_13 + 70 d11_19 + 64 d12_13.v0 + 64 d12_13.v1 + 45 d12_12.v0 + 15 d12_12.v1 + 33 d13_14 + 62 d13_15 + 33 d14_18 + 1 d15_16 + 1 d15_17 + 1 d16_17 + 32 d17_18 + 5 d18_1 + 31 d18_9 + 45 d19_12 + 64 d19_13


Subject to


\ === tcfg constraints ===
dSta_0 = 1
b0 - d0_11 = 0
b0 - dSta_0 = 0
b1 - d1_3 - d1_10 = 0
b1 - d8_1 - d18_1 = 0
b2 - d2_3 - d2_2 = 0
b2 - d2_2 - d10_2 = 0
b3 - d3_4 - d3_5 = 0
b3 - d1_3 - d2_3 - d10_3 = 0
b4 - d4_8 = 0
b4 - d3_4 = 0
b5 - d5_6 - d5_7 = 0
b5 - d3_5 = 0
b6 - d6_7 = 0
b6 - d5_6 = 0
b7 - d7_8 = 0
b7 - d5_7 - d6_7 = 0
b8 - d8_9 - d8_1 = 0
b8 - d4_8 - d7_8 = 0
b9 - d8_9 - d18_9 = 0
b10 - d10_2 - d10_3 = 0
b10 - d1_10 = 0
b11 - d11_13 - d11_19 = 0
b11 - d0_11 = 0
b12 - d12_13 - d12_12 = 0
b12 - d12_12 - d19_12 = 0
b13 - d13_14 - d13_15 = 0
b13 - d11_13 - d12_13 - d19_13 = 0
b14 - d14_18 = 0
b14 - d13_14 = 0
b15 - d15_16 - d15_17 = 0
b15 - d13_15 = 0
b16 - d16_17 = 0
b16 - d15_16 = 0
b17 - d17_18 = 0
b17 - d15_17 - d16_17 = 0
b18 - d18_1 - d18_9 = 0
b18 - d14_18 - d17_18 = 0
b19 - d19_12 - d19_13 = 0
b19 - d11_19 = 0


\ === context constraints ===

\(a)
d1_3 - d1_3.v0 - d1_3.v1 = 0
d1_10 - d1_10.v0 - d1_10.v1 = 0
d2_3 - d2_3.v00 - d2_3.v01 - d2_3.v10 - d2_3.v11 = 0
d2_2 - d2_2.v00 - d2_2.v01 - d2_2.v10 - d2_2.v11 = 0
d3_4 - d3_4.v0 - d3_4.v1 = 0
d3_5 - d3_5.v0 - d3_5.v1 = 0
d4_8 - d4_8.v0 - d4_8.v1 = 0
d5_6 - d5_6.v0 - d5_6.v1 = 0
d5_7 - d5_7.v0 - d5_7.v1 = 0
d6_7 - d6_7.v0 - d6_7.v1 = 0
d7_8 - d7_8.v0 - d7_8.v1 = 0
d8_9 - d8_9.v0 - d8_9.v1 = 0
d8_1 - d8_1.v0 - d8_1.v1 = 0
d10_2 - d10_2.v0 - d10_2.v1 = 0
d10_3 - d10_3.v0 - d10_3.v1 = 0
d12_13 - d12_13.v0 - d12_13.v1 = 0
d12_12 - d12_12.v0 - d12_12.v1 = 0

\(b)
b1.v0 - d1_3.v0 - d1_10.v0 = 0
b1.v1 - d1_3.v1 - d1_10.v1 = 0
b2.v00 - d2_3.v00 - d2_2.v00 = 0
b2.v01 - d2_3.v01 - d2_2.v01 = 0
b2.v10 - d2_3.v10 - d2_2.v10 = 0
b2.v11 - d2_3.v11 - d2_2.v11 = 0
b3.v0 - d3_4.v0 - d3_5.v0 = 0
b3.v1 - d3_4.v1 - d3_5.v1 = 0
b4.v0 - d4_8.v0 = 0
b4.v1 - d4_8.v1 = 0
b5.v0 - d5_6.v0 - d5_7.v0 = 0
b5.v1 - d5_6.v1 - d5_7.v1 = 0
b6.v0 - d6_7.v0 = 0
b6.v1 - d6_7.v1 = 0
b7.v0 - d7_8.v0 = 0
b7.v1 - d7_8.v1 = 0
b8.v0 - d8_9.v0 - d8_1.v0 = 0
b8.v1 - d8_9.v1 - d8_1.v1 = 0
b10.v0 - d10_2.v0 - d10_3.v0 = 0
b10.v1 - d10_2.v1 - d10_3.v1 = 0
b12.v0 - d12_13.v0 - d12_12.v0 = 0
b12.v1 - d12_13.v1 - d12_12.v1 = 0

\(c)
b1 - b1.v0 - b1.v1 = 0
b2 - b2.v00 - b2.v01 - b2.v10 - b2.v11 = 0
b3 - b3.v0 - b3.v1 = 0
b4 - b4.v0 - b4.v1 = 0
b5 - b5.v0 - b5.v1 = 0
b6 - b6.v0 - b6.v1 = 0
b7 - b7.v0 - b7.v1 = 0
b8 - b8.v0 - b8.v1 = 0
b10 - b10.v0 - b10.v1 = 0
b12 - b12.v0 - b12.v1 = 0

\(d)
b2.v00 - d10_2.v0 = 0
b2.v10 - d10_2.v1 = 0
b1.v0 - d18_1 = 0
b12.v0 - d19_12 = 0

\(e)
b2.v01 - d2_2.v00 - d2_2.v01 = 0
b2.v01 - 14 d2_2.v00 <= 0
b2.v11 - d2_2.v10 - d2_2.v11 = 0
b2.v11 - 14 d2_2.v10 <= 0
b1.v1 - d8_1.v0 - d8_1.v1 = 0
b1.v1 - 126 d8_1.v0 <= 0
b12.v1 - d12_12.v0 - d12_12.v1 = 0
b12.v1 - 14 d12_12.v0 <= 0

\(f)
d2_3.v0 - d2_3.v00 - d2_3.v01 = 0
d2_3.v1 - d2_3.v10 - d2_3.v11 = 0
d8_9 - d8_9.v0 - d8_9.v1 = 0
d12_13 - d12_13.v0 - d12_13.v1 = 0

\(g)
b3.v0 - d1_3.v0 - d2_3.v0 - d10_3.v0 = 0
b3.v1 - d1_3.v1 - d2_3.v1 - d10_3.v1 = 0
b4.v0 - d3_4.v0 = 0
b4.v1 - d3_4.v1 = 0
b5.v0 - d3_5.v0 = 0
b5.v1 - d3_5.v1 = 0
b6.v0 - d5_6.v0 = 0
b6.v1 - d5_6.v1 = 0
b7.v0 - d5_7.v0 - d6_7.v0 = 0
b7.v1 - d5_7.v1 - d6_7.v1 = 0
b8.v0 - d4_8.v0 - d7_8.v0 = 0
b8.v1 - d4_8.v1 - d7_8.v1 = 0
b10.v0 - d1_10.v0 = 0
b10.v1 - d1_10.v1 = 0

\ === header constraints ===
b0 <= 1
b2 - 15 b1 <= 0
b2 - 15 d10_2 <= 0
b1 - 127 b0 <= 0
b1 - 127 d18_1 <= 0
b12 - 15 b0 <= 0
b12 - 15 d19_12 <= 0

Generals

Sta
b0
d0_11
b1
d1_3
d1_10
b2
d2_3
d2_2
b3
d3_4
d3_5
b4
d4_8
b5
d5_6
d5_7
b6
d6_7
b7
d7_8
b8
d8_9
d8_1
b9
b10
d10_2
d10_3
b11
d11_13
d11_19
b12
d12_13
d12_12
b13
d13_14
d13_15
b14
d14_18
b15
d15_16
d15_17
b16
d16_17
b17
d17_18
b18
d18_1
d18_9
b19
d19_12
d19_13
b2.d0
b2.d1
b3.d0
b10.d0
b10.d1
b12.d0
b12.d1
b13.d0
b19.d0
b19.d1
d0_11
d1_3.v0
d1_3.v1
d1_10.v0
d1_10.v1
d2_3.v00
d2_3.v01
d2_3.v10
d2_3.v11
d2_2.v00
d2_2.v01
d2_2.v10
d2_2.v11
d3_4.v0
d3_4.v1
d3_5.v0
d3_5.v1
d4_8.v0
d4_8.v1
d5_6.v0
d5_6.v1
d5_7.v0
d5_7.v1
d6_7.v0
d6_7.v1
d7_8.v0
d7_8.v1
d8_9.v0
d8_9.v1
d8_1.v0
d8_1.v1
d10_2.v0
d10_2.v1
d10_3.v0
d10_3.v1
d11_13
d11_19
d12_13.v0
d12_13.v1
d12_12.v0
d12_12.v1
d13_14
d13_15
d14_18
d15_16
d15_17
d16_17
d17_18
d18_1
d18_9
d19_12
d19_13

End
\ total_cons: 125 	total_vars: 62
