lp_solve/result/fir.res
set_XLI: Successfully loaded './xli_CPLEX'

Value of objective function: 37665

Actual values of the variables:
dSta_0                          1
d0_11                           1
d1_3.v0                         0
d1_3.v1                         0
d1_10.v0                        1
d1_10.v1                      126
d2_3.v00                        0
d2_3.v01                        1
d2_3.v10                        0
d2_3.v11                      126
d2_2.v00                        1
d2_2.v01                       13
d2_2.v10                      126
d2_2.v11                     1638
d3_4.v0                         0
d3_4.v1                         0
d3_5.v0                         1
d3_5.v1                       126
d4_8.v0                         0
d4_8.v1                         0
d5_6.v0                         1
d5_6.v1                       126
d5_7.v0                         0
d5_7.v1                         0
d6_7.v0                         1
d6_7.v1                       126
d7_8.v0                         1
d7_8.v1                       126
d8_9.v0                         0
d8_9.v1                         1
d8_1.v0                         1
d8_1.v1                       125
d10_2.v0                        1
d10_2.v1                      126
d10_3.v0                        0
d10_3.v1                        0
d11_13                          0
d11_19                          1
d12_13.v0                       0
d12_13.v1                       1
d12_12.v0                       1
d12_12.v1                      13
d13_14                          0
d13_15                          1
d14_18                          0
d15_16                          1
d15_17                          0
d16_17                          1
d17_18                          1
d18_1                           1
d18_9                           0
d19_12                          1
d19_13                          0
b0                              1
b1                            127
d1_3                            0
d1_10                         127
d8_1                          126
b2                           1905
d2_3                          127
d2_2                         1778
d10_2                         127
b3                            127
d3_4                            0
d3_5                          127
d10_3                           0
b4                              0
d4_8                            0
b5                            127
d5_6                          127
d5_7                            0
b6                            127
d6_7                          127
b7                            127
d7_8                          127
b8                            127
d8_9                            1
b9                              1
b10                           127
b11                             1
b12                            15
d12_13                          1
d12_12                         14
b13                             1
b14                             0
b15                             1
b16                             1
b17                             1
b18                             1
b19                             1
b1.v0                           1
b1.v1                         126
b2.v00                          1
b2.v01                         14
b2.v10                        126
b2.v11                       1764
b3.v0                           1
b3.v1                         126
b4.v0                           0
b4.v1                           0
b5.v0                           1
b5.v1                         126
b6.v0                           1
b6.v1                         126
b7.v0                           1
b7.v1                         126
b8.v0                           1
b8.v1                         126
b10.v0                          1
b10.v1                        126
b12.v0                          1
b12.v1                         14
d2_3.v0                         1
d2_3.v1                       126
